Read MPS format model from file dat/rmp/4node-base_4096_10.mps
Reading time = 0.14 seconds
: 4156 rows, 12438 columns, 415908 nonzeros
Gurobi Optimizer version 9.0.0 build v9.0.0rc2 (linux64)
Optimize a model with 4156 rows, 12438 columns and 415908 nonzeros
Model fingerprint: 0x5875a5b2
Coefficient statistics:
  Matrix range     [1e-03, 2e+01]
  Objective range  [8e-02, 1e+04]
  Bounds range     [0e+00, 0e+00]
  RHS range        [1e+00, 8e+01]
Ordering time: 0.00s

Barrier statistics:
 AA' NZ     : 1.894e+05
 Factor NZ  : 2.363e+05 (roughly 9 MBytes of memory)
 Factor Ops : 1.523e+07 (less than 1 second per iteration)
 Threads    : 1

                  Objective                Residual
Iter       Primal          Dual         Primal    Dual     Compl     Time
   0   2.22887477e+07  0.00000000e+00  3.26e+02 2.40e+02  5.30e+04     0s
   1   5.04687490e+05 -2.27060231e+07  6.48e+00 9.58e+02  3.12e+03     0s
   2   7.08609767e+03 -4.87507519e+06  1.41e-11 1.36e+01  3.98e+02     0s
   3   1.25162433e+03 -9.48591129e+05  1.63e-12 2.05e+00  7.72e+01     0s
   4  -3.97176613e+01 -1.00019119e+05  4.87e-12 2.04e-01  8.12e+00     0s
   5  -1.88058613e+02 -5.18276179e+03  1.47e-11 7.23e-03  4.04e-01     0s
   6  -2.47503426e+02 -5.80970371e+02  9.24e-10 2.50e-04  2.69e-02     0s
   7  -2.72162354e+02 -5.01892603e+02  1.06e-09 1.41e-04  1.85e-02     0s
   8  -3.08791237e+02 -4.09635965e+02  8.53e-09 3.79e-05  8.14e-03     0s
   9  -3.14465253e+02 -3.69684154e+02  9.80e-09 6.92e-06  4.45e-03     0s
  10  -3.26176991e+02 -3.59210478e+02  2.60e-08 3.46e-06  2.66e-03     0s
  11  -3.35807184e+02 -3.55658408e+02  3.47e-08 1.70e-06  1.60e-03     0s
  12  -3.41331937e+02 -3.52703151e+02  2.71e-07 2.26e-07  9.15e-04     0s
  13  -3.43192287e+02 -3.51854522e+02  9.10e-07 1.55e-07  6.97e-04     0s
  14  -3.45016334e+02 -3.51438215e+02  6.02e-07 9.66e-08  5.17e-04     0s
  15  -3.45930545e+02 -3.50985357e+02  5.85e-07 1.92e-08  4.07e-04     1s
  16  -3.47357099e+02 -3.50475726e+02  1.87e-06 8.72e-09  2.51e-04     1s
  17  -3.47863600e+02 -3.49884428e+02  1.35e-06 2.05e-09  1.63e-04     1s
  18  -3.48237578e+02 -3.49580099e+02  9.65e-07 8.02e-10  1.08e-04     1s
  19  -3.48572210e+02 -3.49473678e+02  6.37e-07 6.18e-10  7.25e-05     1s
  20  -3.48713525e+02 -3.49405779e+02  5.10e-07 2.58e-10  5.57e-05     1s
  21  -3.48915659e+02 -3.49334662e+02  3.30e-07 7.60e-11  3.37e-05     1s
  22  -3.48986794e+02 -3.49322795e+02  2.87e-07 5.16e-11  2.70e-05     1s
  23  -3.49025994e+02 -3.49315596e+02  2.48e-07 3.82e-11  2.33e-05     1s
  24  -3.49026212e+02 -3.49306446e+02  1.80e-06 2.22e-11  2.25e-05     1s
  25  -3.49122607e+02 -3.49297842e+02  1.02e-06 2.91e-11  1.41e-05     1s
  26  -3.49122765e+02 -3.49296581e+02  8.01e-07 2.91e-11  1.40e-05     1s
  27  -3.49123672e+02 -3.49298247e+02  1.73e-06 1.46e-11  1.40e-05     1s
  28  -3.49123756e+02 -3.49296924e+02  3.76e-06 1.46e-11  1.39e-05     1s
  29  -3.49123803e+02 -3.49295836e+02  3.83e-06 1.46e-11  1.38e-05     1s
  30  -3.49124378e+02 -3.49296076e+02  3.73e-06 1.46e-11  1.38e-05     1s
  31  -3.49124491e+02 -3.49295917e+02  4.34e-06 1.46e-11  1.38e-05     1s
  32  -3.49124566e+02 -3.49297150e+02  7.45e-06 1.46e-11  1.39e-05     1s
  33  -3.49125523e+02 -3.49297547e+02  1.25e-05 7.28e-12  1.38e-05     1s
  34  -3.49125683e+02 -3.49296317e+02  1.42e-05 1.46e-11  1.37e-05     1s
  35  -3.49126549e+02 -3.49296848e+02  2.17e-05 1.46e-11  1.37e-05     1s
  36  -3.49126713e+02 -3.49296555e+02  2.32e-05 7.28e-12  1.36e-05     1s
  37  -3.49126995e+02 -3.49295981e+02  3.47e-05 1.46e-11  1.36e-05     1s
  38  -3.49127508e+02 -3.49295731e+02  3.88e-05 7.28e-12  1.35e-05     2s
  39  -3.49127939e+02 -3.49295722e+02  3.99e-05 1.46e-11  1.35e-05     2s
  40  -3.49128111e+02 -3.49296221e+02  3.55e-05 1.46e-11  1.35e-05     2s
  41  -3.49129396e+02 -3.49296228e+02  5.53e-05 1.46e-11  1.34e-05     2s
  42  -3.49130546e+02 -3.49296178e+02  1.12e-04 7.28e-12  1.33e-05     2s
  43  -3.49136802e+02 -3.49296140e+02  1.07e-04 1.82e-12  1.28e-05     2s
  44  -3.49153221e+02 -3.49296018e+02  1.39e-04 1.46e-11  1.14e-05     2s
  45  -3.49156013e+02 -3.49296093e+02  3.49e-04 7.28e-12  1.11e-05     2s
  46  -3.49176773e+02 -3.49295968e+02  6.35e-04 1.46e-11  8.77e-06     2s
  47  -3.49236252e+02 -3.49295688e+02  5.60e-04 1.46e-11  4.25e-06     2s
  48  -3.49251064e+02 -3.49295776e+02  7.11e-04 1.46e-11  3.25e-06     2s
  49  -3.49273957e+02 -3.49295356e+02  8.53e-04 1.46e-11  1.62e-06     2s
  50  -3.49281813e+02 -3.49295358e+02  8.05e-04 1.46e-11  1.43e-06     2s
  51  -3.49283031e+02 -3.49295352e+02  6.76e-04 1.46e-11  1.36e-06     2s
  52  -3.49283499e+02 -3.49295257e+02  6.47e-04 1.46e-11  1.26e-06     2s
  53  -3.49281986e+02 -3.49295094e+02  4.19e-04 1.46e-11  1.06e-06     2s
  54  -3.49283118e+02 -3.49295112e+02  1.18e-03 1.46e-11  7.92e-07     2s
  55  -3.49285068e+02 -3.49295074e+02  1.03e-03 1.46e-11  6.79e-07     2s
  56  -3.49286127e+02 -3.49295014e+02  9.30e-04 1.46e-11  6.18e-07     2s
  57  -3.49290451e+02 -3.49294954e+02  1.29e-03 1.46e-11  2.31e-07     2s
  58  -3.49289961e+02 -3.49294955e+02  1.32e-03 1.46e-11  2.31e-07     2s
  59  -3.49290395e+02 -3.49294946e+02  1.27e-03 1.46e-11  1.87e-07     2s
  60  -3.49288025e+02 -3.49294946e+02  1.04e-03 1.46e-11  1.31e-07     2s
  61  -3.49288420e+02 -3.49294935e+02  9.62e-04 1.46e-11  1.16e-07     2s
  62  -3.49286551e+02 -3.49294825e+02  8.72e-04 1.46e-11  8.11e-08     2s
  63  -3.49286001e+02 -3.49294847e+02  9.17e-04 1.46e-11  8.00e-08     2s
  64  -3.49277165e+02 -3.49294873e+02  1.08e-03 1.46e-11  3.58e-08     2s
  65  -3.49279163e+02 -3.49294846e+02  9.70e-04 1.46e-11  3.50e-08     2s
  66  -3.49276849e+02 -3.49294903e+02  1.00e-03 1.46e-11  3.33e-08     2s
  67  -3.49278654e+02 -3.49294574e+02  8.64e-04 1.46e-11  2.64e-08     2s
  68  -3.49276917e+02 -3.49294641e+02  8.84e-04 1.46e-11  1.83e-08     2s
  69  -3.49279791e+02 -3.49294612e+02  8.05e-04 2.91e-11  1.62e-08     3s
  70  -3.49280591e+02 -3.49294628e+02  7.55e-04 1.46e-11  1.58e-08     3s
  71  -3.49280724e+02 -3.49294571e+02  7.52e-04 1.46e-11  1.48e-08     3s
  72  -3.49282564e+02 -3.49294468e+02  5.40e-04 1.46e-11  8.82e-09     3s
  73  -3.49282784e+02 -3.49294495e+02  5.52e-04 1.46e-11  1.10e-08     3s
  74  -3.49290087e+02 -3.49294446e+02  1.16e-03 2.91e-11  3.56e-09     3s
  75  -3.49296160e+02 -3.49294436e+02  1.05e-03 1.46e-11  3.99e-09     3s
  76  -3.49284879e+02 -3.49294552e+02  1.15e-03 1.46e-11  2.93e-09     3s
  77  -3.49284919e+02 -3.49294560e+02  1.03e-03 1.46e-11  4.57e-09     3s
  78  -3.49294557e+02 -3.49294622e+02  1.01e-03 1.46e-11  4.29e-09     3s
  79  -3.49291505e+02 -3.49294519e+02  1.48e-03 7.28e-12  3.88e-09     3s
  80  -3.49292147e+02 -3.49294373e+02  7.61e-04 1.46e-11  2.55e-09     3s
  81  -3.49294998e+02 -3.49294403e+02  6.84e-04 1.46e-11  3.09e-09     3s
  82  -3.49295162e+02 -3.49294387e+02  5.56e-04 1.46e-11  1.39e-09     3s
  83  -3.49295226e+02 -3.49294340e+02  5.44e-04 1.46e-11  1.28e-09     3s
  84  -3.49295171e+02 -3.49294375e+02  5.09e-04 1.46e-11  1.54e-09     3s
  85  -3.49291264e+02 -3.49294412e+02  4.07e-04 1.46e-11  1.61e-09     3s
  86  -3.49290989e+02 -3.49294415e+02  4.57e-04 1.46e-11  1.57e-09     3s
  87  -3.49291170e+02 -3.49294428e+02  4.60e-04 1.46e-11  1.58e-09     3s
  88  -3.49289962e+02 -3.49294409e+02  3.54e-04 1.46e-11  1.32e-09     3s
  89  -3.49291628e+02 -3.49294412e+02  6.07e-04 1.46e-11  9.19e-10     3s
  90  -3.49291657e+02 -3.49294369e+02  6.01e-04 1.46e-11  8.34e-10     3s
  91  -3.49291592e+02 -3.49294434e+02  5.14e-04 1.46e-11  2.61e-09     3s
  92  -3.49291513e+02 -3.49294442e+02  4.32e-04 2.91e-11  2.22e-09     3s

Barrier performed 92 iterations in 3.34 seconds
Sub-optimal termination - objective -3.49025994e+02

Solve time: 3.33758905
Barrier iterations: 92
